c CNF file corresponding to a (partial) station packing problem.
p cnf 2472 229
1 2 3 4 5 6 7 8 9 10 11 12 13 14 0
-1 -2 0
-1 -3 0
-1 -4 0
-1 -5 0
-1 -6 0
-1 -7 0
-1 -8 0
-1 -9 0
-1 -10 0
-1 -11 0
-1 -12 0
-1 -13 0
-1 -14 0
-2 -3 0
-2 -4 0
-2 -5 0
-2 -6 0
-2 -7 0
-2 -8 0
-2 -9 0
-2 -10 0
-2 -11 0
-2 -12 0
-2 -13 0
-2 -14 0
-3 -4 0
-3 -5 0
-3 -6 0
-3 -7 0
-3 -8 0
-3 -9 0
-3 -10 0
-3 -11 0
-3 -12 0
-3 -13 0
-3 -14 0
-4 -5 0
-4 -6 0
-4 -7 0
-4 -8 0
-4 -9 0
-4 -10 0
-4 -11 0
-4 -12 0
-4 -13 0
-4 -14 0
-5 -6 0
-5 -7 0
-5 -8 0
-5 -9 0
-5 -10 0
-5 -11 0
-5 -12 0
-5 -13 0
-5 -14 0
-6 -7 0
-6 -8 0
-6 -9 0
-6 -10 0
-6 -11 0
-6 -12 0
-6 -13 0
-6 -14 0
-7 -8 0
-7 -9 0
-7 -10 0
-7 -11 0
-7 -12 0
-7 -13 0
-7 -14 0
-8 -9 0
-8 -10 0
-8 -11 0
-8 -12 0
-8 -13 0
-8 -14 0
-9 -10 0
-9 -11 0
-9 -12 0
-9 -13 0
-9 -14 0
-10 -11 0
-10 -12 0
-10 -13 0
-10 -14 0
-11 -12 0
-11 -13 0
-11 -14 0
-12 -13 0
-12 -14 0
-13 -14 0
2456 2457 2458 2459 2460 2461 2462 2463 2464 2465 2466 2467 2468 2469 2470 2471 2472 0
-2456 -2457 0
-2456 -2458 0
-2456 -2459 0
-2456 -2460 0
-2456 -2461 0
-2456 -2462 0
-2456 -2463 0
-2456 -2464 0
-2456 -2465 0
-2456 -2466 0
-2456 -2467 0
-2456 -2468 0
-2456 -2469 0
-2456 -2470 0
-2456 -2471 0
-2456 -2472 0
-2457 -2458 0
-2457 -2459 0
-2457 -2460 0
-2457 -2461 0
-2457 -2462 0
-2457 -2463 0
-2457 -2464 0
-2457 -2465 0
-2457 -2466 0
-2457 -2467 0
-2457 -2468 0
-2457 -2469 0
-2457 -2470 0
-2457 -2471 0
-2457 -2472 0
-2458 -2459 0
-2458 -2460 0
-2458 -2461 0
-2458 -2462 0
-2458 -2463 0
-2458 -2464 0
-2458 -2465 0
-2458 -2466 0
-2458 -2467 0
-2458 -2468 0
-2458 -2469 0
-2458 -2470 0
-2458 -2471 0
-2458 -2472 0
-2459 -2460 0
-2459 -2461 0
-2459 -2462 0
-2459 -2463 0
-2459 -2464 0
-2459 -2465 0
-2459 -2466 0
-2459 -2467 0
-2459 -2468 0
-2459 -2469 0
-2459 -2470 0
-2459 -2471 0
-2459 -2472 0
-2460 -2461 0
-2460 -2462 0
-2460 -2463 0
-2460 -2464 0
-2460 -2465 0
-2460 -2466 0
-2460 -2467 0
-2460 -2468 0
-2460 -2469 0
-2460 -2470 0
-2460 -2471 0
-2460 -2472 0
-2461 -2462 0
-2461 -2463 0
-2461 -2464 0
-2461 -2465 0
-2461 -2466 0
-2461 -2467 0
-2461 -2468 0
-2461 -2469 0
-2461 -2470 0
-2461 -2471 0
-2461 -2472 0
-2462 -2463 0
-2462 -2464 0
-2462 -2465 0
-2462 -2466 0
-2462 -2467 0
-2462 -2468 0
-2462 -2469 0
-2462 -2470 0
-2462 -2471 0
-2462 -2472 0
-2463 -2464 0
-2463 -2465 0
-2463 -2466 0
-2463 -2467 0
-2463 -2468 0
-2463 -2469 0
-2463 -2470 0
-2463 -2471 0
-2463 -2472 0
-2464 -2465 0
-2464 -2466 0
-2464 -2467 0
-2464 -2468 0
-2464 -2469 0
-2464 -2470 0
-2464 -2471 0
-2464 -2472 0
-2465 -2466 0
-2465 -2467 0
-2465 -2468 0
-2465 -2469 0
-2465 -2470 0
-2465 -2471 0
-2465 -2472 0
-2466 -2467 0
-2466 -2468 0
-2466 -2469 0
-2466 -2470 0
-2466 -2471 0
-2466 -2472 0
-2467 -2468 0
-2467 -2469 0
-2467 -2470 0
-2467 -2471 0
-2467 -2472 0
-2468 -2469 0
-2468 -2470 0
-2468 -2471 0
-2468 -2472 0
-2469 -2470 0
-2469 -2471 0
-2469 -2472 0
-2470 -2471 0
-2470 -2472 0
-2471 -2472 0
